p cnf 430 1488
-191 88 0
-191 123 0
-191 50 0
-191 35 0
-191 -168 0
191 -88 -123 -50 -35 168 0
-192 -189 0
-192 134 0
-192 94 0
-192 78 0
-192 15 0
192 189 -134 -94 -78 -15 0
-193 -57 0
-193 190 0
-193 83 0
-193 -17 0
-193 -178 0
193 57 -190 -83 17 178 0
-194 -130 0
-194 69 0
-194 156 0
-194 -109 0
-194 129 0
194 130 -69 -156 109 -129 0
-195 166 0
-195 155 0
-195 100 0
-195 -139 0
-195 -84 0
195 -166 -155 -100 139 84 0
191 192 193 194 195 0
-196 159 0
-196 67 0
-196 -88 0
-196 -168 0
-196 152 0
196 -159 -67 88 168 -152 0
-197 -15 0
-197 135 0
-197 142 0
-197 10 0
-197 -106 0
197 15 -135 -142 -10 106 0
-198 -161 0
-198 -150 0
-198 -18 0
-198 -30 0
-198 -25 0
198 161 150 18 30 25 0
-199 -24 0
-199 -19 0
-199 139 0
-199 25 0
-199 52 0
199 24 19 -139 -25 -52 0
-200 -52 0
-200 95 0
-200 -91 0
-200 -47 0
-200 -158 0
200 52 -95 91 47 158 0
196 197 198 199 200 0
-201 -22 0
-201 -128 0
-201 -106 0
-201 38 0
-201 -130 0
201 22 128 106 -38 130 0
-202 -8 0
-202 -154 0
-202 14 0
-202 -30 0
-202 71 0
202 8 154 -14 30 -71 0
-203 -51 0
-203 -173 0
-203 137 0
-203 -125 0
-203 -90 0
203 51 173 -137 125 90 0
-204 -71 0
-204 111 0
-204 36 0
-204 158 0
-204 52 0
204 71 -111 -36 -158 -52 0
-205 -15 0
-205 -54 0
-205 -104 0
-205 -167 0
-205 53 0
205 15 54 104 167 -53 0
201 202 203 204 205 0
-206 66 0
-206 -141 0
-206 -38 0
-206 164 0
-206 -90 0
206 -66 141 38 -164 90 0
-207 -134 0
-207 87 0
-207 56 0
-207 75 0
-207 178 0
207 134 -87 -56 -75 -178 0
-208 91 0
-208 41 0
-208 126 0
-208 127 0
-208 114 0
208 -91 -41 -126 -127 -114 0
-209 -70 0
-209 -152 0
-209 105 0
-209 -166 0
-209 -46 0
209 70 152 -105 166 46 0
-210 -164 0
-210 118 0
-210 -106 0
-210 -137 0
-210 -1 0
210 164 -118 106 137 1 0
206 207 208 209 210 0
-211 110 0
-211 145 0
-211 159 0
-211 40 0
-211 69 0
211 -110 -145 -159 -40 -69 0
-212 182 0
-212 -119 0
-212 26 0
-212 -158 0
-212 -163 0
212 -182 119 -26 158 163 0
-213 -63 0
-213 97 0
-213 172 0
-213 139 0
-213 133 0
213 63 -97 -172 -139 -133 0
-214 -135 0
-214 104 0
-214 -130 0
-214 -10 0
-214 171 0
214 135 -104 130 10 -171 0
-215 -189 0
-215 150 0
-215 -73 0
-215 -151 0
-215 56 0
215 189 -150 73 151 -56 0
211 212 213 214 215 0
-216 183 0
-216 55 0
-216 -175 0
-216 23 0
-216 182 0
216 -183 -55 175 -23 -182 0
-217 123 0
-217 128 0
-217 184 0
-217 3 0
-217 -109 0
217 -123 -128 -184 -3 109 0
-218 -52 0
-218 182 0
-218 22 0
-218 -45 0
-218 -181 0
218 52 -182 -22 45 181 0
-219 101 0
-219 -71 0
-219 6 0
-219 -174 0
-219 167 0
219 -101 71 -6 174 -167 0
-220 26 0
-220 177 0
-220 172 0
-220 -39 0
-220 2 0
220 -26 -177 -172 39 -2 0
216 217 218 219 220 0
-221 129 0
-221 47 0
-221 -169 0
-221 101 0
-221 -131 0
221 -129 -47 169 -101 131 0
-222 -36 0
-222 70 0
-222 -97 0
-222 -136 0
-222 82 0
222 36 -70 97 136 -82 0
-223 10 0
-223 143 0
-223 89 0
-223 125 0
-223 -57 0
223 -10 -143 -89 -125 57 0
-224 -182 0
-224 -148 0
-224 169 0
-224 -144 0
-224 -139 0
224 182 148 -169 144 139 0
-225 -154 0
-225 -12 0
-225 -20 0
-225 -1 0
-225 31 0
225 154 12 20 1 -31 0
221 222 223 224 225 0
-226 138 0
-226 -79 0
-226 85 0
-226 -168 0
-226 -4 0
226 -138 79 -85 168 4 0
-227 7 0
-227 42 0
-227 -134 0
-227 -16 0
-227 74 0
227 -7 -42 134 16 -74 0
-228 169 0
-228 -70 0
-228 -9 0
-228 -168 0
-228 -134 0
228 -169 70 9 168 134 0
-229 -161 0
-229 41 0
-229 188 0
-229 -101 0
-229 60 0
229 161 -41 -188 101 -60 0
-230 -139 0
-230 6 0
-230 -134 0
-230 -117 0
-230 76 0
230 139 -6 134 117 -76 0
226 227 228 229 230 0
-231 83 0
-231 -167 0
-231 -88 0
-231 -110 0
-231 74 0
231 -83 167 88 110 -74 0
-232 -72 0
-232 10 0
-232 -25 0
-232 8 0
-232 -190 0
232 72 -10 25 -8 190 0
-233 -7 0
-233 80 0
-233 61 0
-233 -158 0
-233 39 0
233 7 -80 -61 158 -39 0
-234 103 0
-234 -79 0
-234 -111 0
-234 -76 0
-234 -8 0
234 -103 79 111 76 8 0
-235 36 0
-235 -71 0
-235 80 0
-235 -93 0
-235 25 0
235 -36 71 -80 93 -25 0
231 232 233 234 235 0
-236 -174 0
-236 167 0
-236 -51 0
-236 41 0
-236 -119 0
236 174 -167 51 -41 119 0
-237 44 0
-237 -101 0
-237 151 0
-237 -188 0
-237 100 0
237 -44 101 -151 188 -100 0
-238 84 0
-238 29 0
-238 -45 0
-238 -99 0
-238 -43 0
238 -84 -29 45 99 43 0
-239 54 0
-239 -41 0
-239 -19 0
-239 106 0
-239 -68 0
239 -54 41 19 -106 68 0
-240 94 0
-240 -66 0
-240 -8 0
-240 -182 0
-240 6 0
240 -94 66 8 182 -6 0
236 237 238 239 240 0
-241 -34 0
-241 -116 0
-241 12 0
-241 -140 0
-241 -154 0
241 34 116 -12 140 154 0
-242 64 0
-242 99 0
-242 -1 0
-242 20 0
-242 -79 0
242 -64 -99 1 -20 79 0
-243 -15 0
-243 67 0
-243 47 0
-243 2 0
-243 -113 0
243 15 -67 -47 -2 113 0
-244 34 0
-244 -2 0
-244 -6 0
-244 -8 0
-244 74 0
244 -34 2 6 8 -74 0
-245 -187 0
-245 25 0
-245 -17 0
-245 -183 0
-245 97 0
245 187 -25 17 183 -97 0
241 242 243 244 245 0
-246 -165 0
-246 157 0
-246 108 0
-246 35 0
-246 41 0
246 165 -157 -108 -35 -41 0
-247 79 0
-247 75 0
-247 172 0
-247 -69 0
-247 -6 0
247 -79 -75 -172 69 6 0
-248 -93 0
-248 169 0
-248 80 0
-248 -36 0
-248 -111 0
248 93 -169 -80 36 111 0
-249 43 0
-249 2 0
-249 85 0
-249 -60 0
-249 -134 0
249 -43 -2 -85 60 134 0
-250 -153 0
-250 190 0
-250 141 0
-250 70 0
-250 178 0
250 153 -190 -141 -70 -178 0
246 247 248 249 250 0
-251 -176 0
-251 100 0
-251 164 0
-251 -81 0
-251 -135 0
251 176 -100 -164 81 135 0
-252 67 0
-252 -138 0
-252 -5 0
-252 39 0
-252 135 0
252 -67 138 5 -39 -135 0
-253 -59 0
-253 -131 0
-253 130 0
-253 60 0
-253 84 0
253 59 131 -130 -60 -84 0
-254 8 0
-254 12 0
-254 -14 0
-254 -154 0
-254 113 0
254 -8 -12 14 154 -113 0
-255 -90 0
-255 35 0
-255 166 0
-255 -77 0
-255 80 0
255 90 -35 -166 77 -80 0
251 252 253 254 255 0
-256 66 0
-256 -31 0
-256 92 0
-256 -85 0
-256 -7 0
256 -66 31 -92 85 7 0
-257 127 0
-257 -93 0
-257 -40 0
-257 -56 0
-257 -26 0
257 -127 93 40 56 26 0
-258 -2 0
-258 -87 0
-258 -5 0
-258 168 0
-258 -171 0
258 2 87 5 -168 171 0
-259 -19 0
-259 137 0
-259 -39 0
-259 -10 0
-259 75 0
259 19 -137 39 10 -75 0
-260 87 0
-260 100 0
-260 153 0
-260 -65 0
-260 -73 0
260 -87 -100 -153 65 73 0
256 257 258 259 260 0
-261 184 0
-261 147 0
-261 46 0
-261 3 0
-261 116 0
261 -184 -147 -46 -3 -116 0
-262 52 0
-262 136 0
-262 129 0
-262 -91 0
-262 -54 0
262 -52 -136 -129 91 54 0
-263 -96 0
-263 167 0
-263 -68 0
-263 -160 0
-263 -33 0
263 96 -167 68 160 33 0
-264 39 0
-264 30 0
-264 -188 0
-264 -117 0
-264 -111 0
264 -39 -30 188 117 111 0
-265 -35 0
-265 -183 0
-265 147 0
-265 173 0
-265 156 0
265 35 183 -147 -173 -156 0
261 262 263 264 265 0
-266 -20 0
-266 136 0
-266 6 0
-266 -162 0
-266 -14 0
266 20 -136 -6 162 14 0
-267 69 0
-267 -40 0
-267 -82 0
-267 190 0
-267 -68 0
267 -69 40 82 -190 68 0
-268 126 0
-268 -24 0
-268 -125 0
-268 -2 0
-268 -159 0
268 -126 24 125 2 159 0
-269 114 0
-269 159 0
-269 -96 0
-269 -40 0
-269 122 0
269 -114 -159 96 40 -122 0
-270 -164 0
-270 -11 0
-270 -170 0
-270 114 0
-270 137 0
270 164 11 170 -114 -137 0
266 267 268 269 270 0
-271 157 0
-271 158 0
-271 -39 0
-271 52 0
-271 73 0
271 -157 -158 39 -52 -73 0
-272 -64 0
-272 42 0
-272 75 0
-272 -131 0
-272 17 0
272 64 -42 -75 131 -17 0
-273 114 0
-273 -75 0
-273 -145 0
-273 53 0
-273 137 0
273 -114 75 145 -53 -137 0
-274 59 0
-274 -115 0
-274 151 0
-274 -119 0
-274 -72 0
274 -59 115 -151 119 72 0
-275 86 0
-275 1 0
-275 114 0
-275 -118 0
-275 97 0
275 -86 -1 -114 118 -97 0
271 272 273 274 275 0
-276 -97 0
-276 57 0
-276 47 0
-276 -70 0
-276 -117 0
276 97 -57 -47 70 117 0
-277 -39 0
-277 -110 0
-277 22 0
-277 -90 0
-277 69 0
277 39 110 -22 90 -69 0
-278 -16 0
-278 175 0
-278 -148 0
-278 -115 0
-278 -103 0
278 16 -175 148 115 103 0
-279 104 0
-279 -177 0
-279 180 0
-279 -140 0
-279 169 0
279 -104 177 -180 140 -169 0
-280 110 0
-280 -92 0
-280 85 0
-280 79 0
-280 -162 0
280 -110 92 -85 -79 162 0
276 277 278 279 280 0
-281 188 0
-281 -131 0
-281 -116 0
-281 -103 0
-281 64 0
281 -188 131 116 103 -64 0
-282 -34 0
-282 26 0
-282 -106 0
-282 18 0
-282 -83 0
282 34 -26 106 -18 83 0
-283 182 0
-283 -103 0
-283 -157 0
-283 -143 0
-283 138 0
283 -182 103 157 143 -138 0
-284 105 0
-284 84 0
-284 -25 0
-284 -137 0
-284 -101 0
284 -105 -84 25 137 101 0
-285 -62 0
-285 -81 0
-285 -189 0
-285 -93 0
-285 60 0
285 62 81 189 93 -60 0
281 282 283 284 285 0
-286 182 0
-286 -65 0
-286 156 0
-286 8 0
-286 -76 0
286 -182 65 -156 -8 76 0
-287 83 0
-287 -50 0
-287 -38 0
-287 -48 0
-287 -74 0
287 -83 50 38 48 74 0
-288 167 0
-288 40 0
-288 -65 0
-288 -5 0
-288 -107 0
288 -167 -40 65 5 107 0
-289 -9 0
-289 163 0
-289 -166 0
-289 114 0
-289 -56 0
289 9 -163 166 -114 56 0
-290 90 0
-290 156 0
-290 46 0
-290 -109 0
-290 -119 0
290 -90 -156 -46 109 119 0
286 287 288 289 290 0
-291 98 0
-291 75 0
-291 38 0
-291 -125 0
-291 186 0
291 -98 -75 -38 125 -186 0
-292 40 0
-292 -178 0
-292 -65 0
-292 176 0
-292 148 0
292 -40 178 65 -176 -148 0
-293 -88 0
-293 44 0
-293 80 0
-293 33 0
-293 -154 0
293 88 -44 -80 -33 154 0
-294 54 0
-294 113 0
-294 -70 0
-294 127 0
-294 98 0
294 -54 -113 70 -127 -98 0
-295 -152 0
-295 -12 0
-295 -1 0
-295 -115 0
-295 -17 0
295 152 12 1 115 17 0
291 292 293 294 295 0
-296 -8 0
-296 -3 0
-296 92 0
-296 175 0
-296 -145 0
296 8 3 -92 -175 145 0
-297 -69 0
-297 -154 0
-297 18 0
-297 -143 0
-297 -161 0
297 69 154 -18 143 161 0
-298 -7 0
-298 -49 0
-298 115 0
-298 -110 0
-298 -75 0
298 7 49 -115 110 75 0
-299 -22 0
-299 -137 0
-299 -76 0
-299 166 0
-299 -72 0
299 22 137 76 -166 72 0
-300 183 0
-300 80 0
-300 141 0
-300 -185 0
-300 -72 0
300 -183 -80 -141 185 72 0
296 297 298 299 300 0
-301 -112 0
-301 170 0
-301 -143 0
-301 153 0
-301 -64 0
301 112 -170 143 -153 64 0
-302 -163 0
-302 190 0
-302 -72 0
-302 189 0
-302 110 0
302 163 -190 72 -189 -110 0
-303 96 0
-303 84 0
-303 -77 0
-303 175 0
-303 -150 0
303 -96 -84 77 -175 150 0
-304 -7 0
-304 -187 0
-304 -164 0
-304 3 0
-304 -138 0
304 7 187 164 -3 138 0
-305 31 0
-305 -65 0
-305 -64 0
-305 -186 0
-305 162 0
305 -31 65 64 186 -162 0
301 302 303 304 305 0
-306 -8 0
-306 -145 0
-306 -83 0
-306 -131 0
-306 -84 0
306 8 145 83 131 84 0
-307 -162 0
-307 -126 0
-307 168 0
-307 -131 0
-307 -32 0
307 162 126 -168 131 32 0
-308 -119 0
-308 157 0
-308 -91 0
-308 154 0
-308 6 0
308 119 -157 91 -154 -6 0
-309 -111 0
-309 158 0
-309 -14 0
-309 -174 0
-309 136 0
309 111 -158 14 174 -136 0
-310 159 0
-310 57 0
-310 122 0
-310 -86 0
-310 112 0
310 -159 -57 -122 86 -112 0
306 307 308 309 310 0
-311 -117 0
-311 99 0
-311 26 0
-311 140 0
-311 123 0
311 117 -99 -26 -140 -123 0
-312 120 0
-312 15 0
-312 -20 0
-312 56 0
-312 -47 0
312 -120 -15 20 -56 47 0
-313 -170 0
-313 180 0
-313 -111 0
-313 160 0
-313 61 0
313 170 -180 111 -160 -61 0
-314 -176 0
-314 23 0
-314 -141 0
-314 -36 0
-314 47 0
314 176 -23 141 36 -47 0
-315 52 0
-315 -34 0
-315 2 0
-315 80 0
-315 140 0
315 -52 34 -2 -80 -140 0
311 312 313 314 315 0
-316 35 0
-316 133 0
-316 165 0
-316 177 0
-316 -41 0
316 -35 -133 -165 -177 41 0
-317 -154 0
-317 -153 0
-317 126 0
-317 8 0
-317 -123 0
317 154 153 -126 -8 123 0
-318 -91 0
-318 -150 0
-318 -156 0
-318 -63 0
-318 -23 0
318 91 150 156 63 23 0
-319 27 0
-319 -136 0
-319 8 0
-319 180 0
-319 -50 0
319 -27 136 -8 -180 50 0
-320 93 0
-320 138 0
-320 77 0
-320 -154 0
-320 68 0
320 -93 -138 -77 154 -68 0
316 317 318 319 320 0
-321 149 0
-321 -186 0
-321 63 0
-321 55 0
-321 -72 0
321 -149 186 -63 -55 72 0
-322 45 0
-322 -4 0
-322 80 0
-322 130 0
-322 -43 0
322 -45 4 -80 -130 43 0
-323 -93 0
-323 80 0
-323 -5 0
-323 167 0
-323 2 0
323 93 -80 5 -167 -2 0
-324 179 0
-324 -55 0
-324 90 0
-324 -34 0
-324 -152 0
324 -179 55 -90 34 152 0
-325 -176 0
-325 179 0
-325 189 0
-325 105 0
-325 -24 0
325 176 -179 -189 -105 24 0
321 322 323 324 325 0
-326 -80 0
-326 159 0
-326 184 0
-326 73 0
-326 -186 0
326 80 -159 -184 -73 186 0
-327 -14 0
-327 -143 0
-327 52 0
-327 38 0
-327 -183 0
327 14 143 -52 -38 183 0
-328 63 0
-328 11 0
-328 176 0
-328 -136 0
-328 -78 0
328 -63 -11 -176 136 78 0
-329 59 0
-329 6 0
-329 184 0
-329 -95 0
-329 57 0
329 -59 -6 -184 95 -57 0
-330 178 0
-330 5 0
-330 83 0
-330 99 0
-330 161 0
330 -178 -5 -83 -99 -161 0
326 327 328 329 330 0
-331 135 0
-331 66 0
-331 -56 0
-331 101 0
-331 -123 0
331 -135 -66 56 -101 123 0
-332 37 0
-332 102 0
-332 140 0
-332 -20 0
-332 -169 0
332 -37 -102 -140 20 169 0
-333 -72 0
-333 154 0
-333 162 0
-333 145 0
-333 2 0
333 72 -154 -162 -145 -2 0
-334 178 0
-334 -121 0
-334 78 0
-334 -16 0
-334 -175 0
334 -178 121 -78 16 175 0
-335 99 0
-335 -91 0
-335 -42 0
-335 -79 0
-335 -37 0
335 -99 91 42 79 37 0
331 332 333 334 335 0
-336 -31 0
-336 -116 0
-336 121 0
-336 -183 0
-336 144 0
336 31 116 -121 183 -144 0
-337 172 0
-337 38 0
-337 63 0
-337 -51 0
-337 177 0
337 -172 -38 -63 51 -177 0
-338 78 0
-338 181 0
-338 -176 0
-338 2 0
-338 -138 0
338 -78 -181 176 -2 138 0
-339 -82 0
-339 160 0
-339 117 0
-339 42 0
-339 -2 0
339 82 -160 -117 -42 2 0
-340 64 0
-340 -96 0
-340 -170 0
-340 -123 0
-340 88 0
340 -64 96 170 123 -88 0
336 337 338 339 340 0
-341 20 0
-341 -67 0
-341 158 0
-341 -109 0
-341 -177 0
341 -20 67 -158 109 177 0
-342 126 0
-342 -132 0
-342 -88 0
-342 -86 0
-342 40 0
342 -126 132 88 86 -40 0
-343 12 0
-343 76 0
-343 2 0
-343 6 0
-343 104 0
343 -12 -76 -2 -6 -104 0
-344 5 0
-344 -6 0
-344 -44 0
-344 -147 0
-344 -16 0
344 -5 6 44 147 16 0
-345 -145 0
-345 128 0
-345 -53 0
-345 -96 0
-345 56 0
345 145 -128 53 96 -56 0
341 342 343 344 345 0
-346 66 0
-346 -24 0
-346 138 0
-346 -65 0
-346 67 0
346 -66 24 -138 65 -67 0
-347 170 0
-347 81 0
-347 -121 0
-347 30 0
-347 183 0
347 -170 -81 121 -30 -183 0
-348 58 0
-348 147 0
-348 -63 0
-348 47 0
-348 -60 0
348 -58 -147 63 -47 60 0
-349 -39 0
-349 -7 0
-349 80 0
-349 -44 0
-349 -155 0
349 39 7 -80 44 155 0
-350 100 0
-350 70 0
-350 -74 0
-350 -107 0
-350 -31 0
350 -100 -70 74 107 31 0
346 347 348 349 350 0
-351 -16 0
-351 86 0
-351 -122 0
-351 -10 0
-351 69 0
351 16 -86 122 10 -69 0
-352 -45 0
-352 -162 0
-352 184 0
-352 118 0
-352 -168 0
352 45 162 -184 -118 168 0
-353 -138 0
-353 -82 0
-353 168 0
-353 -67 0
-353 -47 0
353 138 82 -168 67 47 0
-354 186 0
-354 97 0
-354 12 0
-354 -168 0
-354 -144 0
354 -186 -97 -12 168 144 0
-355 140 0
-355 55 0
-355 132 0
-355 34 0
-355 -49 0
355 -140 -55 -132 -34 49 0
351 352 353 354 355 0
-356 136 0
-356 -188 0
-356 117 0
-356 80 0
-356 -49 0
356 -136 188 -117 -80 49 0
-357 -56 0
-357 -178 0
-357 -132 0
-357 -190 0
-357 -57 0
357 56 178 132 190 57 0
-358 42 0
-358 122 0
-358 -111 0
-358 47 0
-358 -131 0
358 -42 -122 111 -47 131 0
-359 133 0
-359 56 0
-359 189 0
-359 91 0
-359 21 0
359 -133 -56 -189 -91 -21 0
-360 -10 0
-360 -158 0
-360 94 0
-360 141 0
-360 168 0
360 10 158 -94 -141 -168 0
356 357 358 359 360 0
-361 -110 0
-361 -69 0
-361 163 0
-361 -145 0
-361 -39 0
361 110 69 -163 145 39 0
-362 -162 0
-362 24 0
-362 -166 0
-362 25 0
-362 -185 0
362 162 -24 166 -25 185 0
-363 -10 0
-363 187 0
-363 116 0
-363 161 0
-363 40 0
363 10 -187 -116 -161 -40 0
-364 -74 0
-364 146 0
-364 -2 0
-364 63 0
-364 -37 0
364 74 -146 2 -63 37 0
-365 -33 0
-365 109 0
-365 133 0
-365 -12 0
-365 -93 0
365 33 -109 -133 12 93 0
361 362 363 364 365 0
-366 -123 0
-366 169 0
-366 -19 0
-366 107 0
-366 -116 0
366 123 -169 19 -107 116 0
-367 30 0
-367 -35 0
-367 102 0
-367 -77 0
-367 47 0
367 -30 35 -102 77 -47 0
-368 -17 0
-368 66 0
-368 115 0
-368 -59 0
-368 22 0
368 17 -66 -115 59 -22 0
-369 -142 0
-369 139 0
-369 148 0
-369 8 0
-369 -133 0
369 142 -139 -148 -8 133 0
-370 -124 0
-370 -66 0
-370 -92 0
-370 -144 0
-370 -103 0
370 124 66 92 144 103 0
366 367 368 369 370 0
-371 -108 0
-371 7 0
-371 120 0
-371 22 0
-371 156 0
371 108 -7 -120 -22 -156 0
-372 116 0
-372 -140 0
-372 175 0
-372 -78 0
-372 -120 0
372 -116 140 -175 78 120 0
-373 -62 0
-373 -92 0
-373 -128 0
-373 87 0
-373 64 0
373 62 92 128 -87 -64 0
-374 -121 0
-374 170 0
-374 -75 0
-374 -62 0
-374 11 0
374 121 -170 75 62 -11 0
-375 -174 0
-375 -98 0
-375 37 0
-375 -149 0
-375 111 0
375 174 98 -37 149 -111 0
371 372 373 374 375 0
-376 11 0
-376 -135 0
-376 -59 0
-376 55 0
-376 -33 0
376 -11 135 59 -55 33 0
-377 185 0
-377 26 0
-377 41 0
-377 7 0
-377 155 0
377 -185 -26 -41 -7 -155 0
-378 12 0
-378 28 0
-378 89 0
-378 27 0
-378 -182 0
378 -12 -28 -89 -27 182 0
-379 -51 0
-379 -15 0
-379 -1 0
-379 -98 0
-379 -185 0
379 51 15 1 98 185 0
-380 55 0
-380 -94 0
-380 40 0
-380 18 0
-380 -3 0
380 -55 94 -40 -18 3 0
376 377 378 379 380 0
-381 -118 0
-381 -65 0
-381 40 0
-381 42 0
-381 -12 0
381 118 65 -40 -42 12 0
-382 22 0
-382 -130 0
-382 -47 0
-382 -134 0
-382 -107 0
382 -22 130 47 134 107 0
-383 85 0
-383 -10 0
-383 44 0
-383 -80 0
-383 -90 0
383 -85 10 -44 80 90 0
-384 -69 0
-384 103 0
-384 144 0
-384 102 0
-384 -34 0
384 69 -103 -144 -102 34 0
-385 143 0
-385 -75 0
-385 -98 0
-385 29 0
-385 108 0
385 -143 75 98 -29 -108 0
381 382 383 384 385 0
-386 -32 0
-386 60 0
-386 175 0
-386 -122 0
-386 119 0
386 32 -60 -175 122 -119 0
-387 -6 0
-387 74 0
-387 169 0
-387 160 0
-387 -104 0
387 6 -74 -169 -160 104 0
-388 -122 0
-388 -34 0
-388 -48 0
-388 92 0
-388 -108 0
388 122 34 48 -92 108 0
-389 182 0
-389 117 0
-389 -152 0
-389 -101 0
-389 17 0
389 -182 -117 152 101 -17 0
-390 98 0
-390 175 0
-390 -102 0
-390 -1 0
-390 105 0
390 -98 -175 102 1 -105 0
386 387 388 389 390 0
-391 -68 0
-391 -38 0
-391 -98 0
-391 -115 0
-391 20 0
391 68 38 98 115 -20 0
-392 21 0
-392 -133 0
-392 -54 0
-392 155 0
-392 -186 0
392 -21 133 54 -155 186 0
-393 94 0
-393 42 0
-393 -43 0
-393 -22 0
-393 40 0
393 -94 -42 43 22 -40 0
-394 167 0
-394 -183 0
-394 -171 0
-394 -30 0
-394 176 0
394 -167 183 171 30 -176 0
-395 -180 0
-395 118 0
-395 -77 0
-395 -98 0
-395 -109 0
395 180 -118 77 98 109 0
391 392 393 394 395 0
-396 -65 0
-396 -41 0
-396 -31 0
-396 67 0
-396 -139 0
396 65 41 31 -67 139 0
-397 -47 0
-397 -18 0
-397 91 0
-397 -64 0
-397 104 0
397 47 18 -91 64 -104 0
-398 20 0
-398 35 0
-398 140 0
-398 -111 0
-398 -43 0
398 -20 -35 -140 111 43 0
-399 -39 0
-399 84 0
-399 104 0
-399 183 0
-399 136 0
399 39 -84 -104 -183 -136 0
-400 -6 0
-400 -91 0
-400 166 0
-400 4 0
-400 -152 0
400 6 91 -166 -4 152 0
396 397 398 399 400 0
-401 -28 0
-401 165 0
-401 -183 0
-401 3 0
-401 64 0
401 28 -165 183 -3 -64 0
-402 150 0
-402 138 0
-402 103 0
-402 -86 0
-402 181 0
402 -150 -138 -103 86 -181 0
-403 -12 0
-403 -51 0
-403 100 0
-403 -63 0
-403 165 0
403 12 51 -100 63 -165 0
-404 135 0
-404 -151 0
-404 -82 0
-404 46 0
-404 -103 0
404 -135 151 82 -46 103 0
-405 44 0
-405 17 0
-405 42 0
-405 -54 0
-405 -142 0
405 -44 -17 -42 54 142 0
401 402 403 404 405 0
-406 -3 0
-406 -44 0
-406 103 0
-406 -112 0
-406 175 0
406 3 44 -103 112 -175 0
-407 6 0
-407 -179 0
-407 135 0
-407 -105 0
-407 -51 0
407 -6 179 -135 105 51 0
-408 1 0
-408 173 0
-408 140 0
-408 56 0
-408 -61 0
408 -1 -173 -140 -56 61 0
-409 -166 0
-409 -115 0
-409 -157 0
-409 188 0
-409 -20 0
409 166 115 157 -188 20 0
-410 40 0
-410 112 0
-410 -9 0
-410 -82 0
-410 -177 0
410 -40 -112 9 82 177 0
406 407 408 409 410 0
-411 82 0
-411 4 0
-411 -129 0
-411 36 0
-411 -95 0
411 -82 -4 129 -36 95 0
-412 -190 0
-412 48 0
-412 -36 0
-412 -142 0
-412 -108 0
412 190 -48 36 142 108 0
-413 78 0
-413 -173 0
-413 145 0
-413 154 0
-413 -110 0
413 -78 173 -145 -154 110 0
-414 174 0
-414 -52 0
-414 143 0
-414 20 0
-414 -11 0
414 -174 52 -143 -20 11 0
-415 -42 0
-415 -174 0
-415 183 0
-415 -19 0
-415 172 0
415 42 174 -183 19 -172 0
411 412 413 414 415 0
-416 178 0
-416 -85 0
-416 43 0
-416 111 0
-416 162 0
416 -178 85 -43 -111 -162 0
-417 119 0
-417 -55 0
-417 187 0
-417 -1 0
-417 108 0
417 -119 55 -187 1 -108 0
-418 3 0
-418 64 0
-418 55 0
-418 -107 0
-418 -129 0
418 -3 -64 -55 107 129 0
-419 -7 0
-419 41 0
-419 -73 0
-419 170 0
-419 -179 0
419 7 -41 73 -170 179 0
-420 -179 0
-420 -112 0
-420 -73 0
-420 -148 0
-420 -5 0
420 179 112 73 148 5 0
416 417 418 419 420 0
-421 -98 0
-421 -94 0
-421 -180 0
-421 175 0
-421 -163 0
421 98 94 180 -175 163 0
-422 -164 0
-422 8 0
-422 35 0
-422 -128 0
-422 134 0
422 164 -8 -35 128 -134 0
-423 -85 0
-423 -177 0
-423 -174 0
-423 -178 0
-423 162 0
423 85 177 174 178 -162 0
-424 129 0
-424 128 0
-424 -158 0
-424 168 0
-424 131 0
424 -129 -128 158 -168 -131 0
-425 45 0
-425 -116 0
-425 -113 0
-425 12 0
-425 187 0
425 -45 116 113 -12 -187 0
421 422 423 424 425 0
-426 -93 0
-426 -100 0
-426 133 0
-426 -76 0
-426 30 0
426 93 100 -133 76 -30 0
-427 -100 0
-427 -17 0
-427 -48 0
-427 -107 0
-427 30 0
427 100 17 48 107 -30 0
-428 49 0
-428 -19 0
-428 -134 0
-428 -113 0
-428 73 0
428 -49 19 134 113 -73 0
-429 74 0
-429 -63 0
-429 59 0
-429 180 0
-429 75 0
429 -74 63 -59 -180 -75 0
-430 -75 0
-430 19 0
-430 166 0
-430 -155 0
-430 69 0
430 75 -19 -166 155 -69 0
426 427 428 429 430 0
